0 0 2 0
2 0 2 1
0 1 0 1
1 0 1 0
2 1 3 6
1 1 2 8
5 0 1 8
2 2 5 10
3 0 1 11
4 0 2 13
5 1 3 11
0 2 1 16
3 1 0 16
3 2 2 22
4 1 1 22
1 2 4 13
2 3 0 21
4 2 4 25
5 2 5 18
3 3 3 27
1 3 5 27
5 3 0 30
2 4 1 30
3 4 4 30
0 3 3 30
4 3 5 37
1 4 0 40
4 4 0 50
0 4 5 41
1 5 3 50
4 5 3 54
2 5 4 38
5 4 4 45
0 5 4 49
3 5 5 44
5 5 2 49
